43
3 20 109 92 
2 22 76 
3 98 45 107 
2 6 70 
3 89 5 90 
3 16 63 74 
2 7 24 
3 50 81 68 
3 34 111 63 
3 27 42 105 
3 78 1 20 
3 78 100 110 
3 8 25 68 
3 97 47 23 
3 61 51 62 
2 76 103 
3 81 60 22 
2 106 82 
3 15 114 80 
3 112 77 91 
3 52 101 81 
3 100 29 57 
3 75 35 119 
3 112 44 30 
3 1 24 95 
3 117 4 39 
3 65 55 96 
3 19 62 77 
3 18 17 34 
3 104 47 24 
3 101 119 117 
3 14 7 26 
2 13 103 
3 120 9 95 
3 38 102 48 
2 49 33 
3 42 113 90 
3 56 51 59 
3 57 72 91 
2 10 60 
3 29 50 64 
3 84 68 39 
2 115 116 
